num_offers = 25;
num_halls = 10;
start=[21,1,21,22,25,80,16,24,6,48,45,15,4,17,21,34,33,7,2,18,37,54,46,20,52];
end=[50,11,43,82,67,96,48,42,74,52,63,17,61,76,95,80,97,98,83,54,100,85,97,59,99];
price=[1409,459,1160,4880,3437,1601,1744,540,4100,368,333,228,1544,4892,6859,933,5065,7203,2244,2745,3123,2206,3893,1766,2835];
requirement=[742,605,562,344,362,378,523,712,822,516,322,562,589,846,351,703,543,609,514,788,884,205,895,616,354];
capacity=[825,948,345,362,958,476,765,875,454,203];
